25° run output:
{
    "Function": "euclidB500.tsp",
    "Problem dimension": [
        139,
        286,
        182,
        355,
        141,
        272,
        388,
        485,
        86,
        149,
        314,
        419,
        103,
        118,
        90,
        4,
        426,
        166,
        62,
        63,
        173,
        87,
        335,
        470,
        260,
        307,
        438,
        315,
        329,
        127,
        457,
        47,
        38,
        157,
        29,
        469,
        415,
        453,
        304,
        203,
        172,
        140,
        250,
        392,
        130,
        374,
        171,
        295,
        178,
        64,
        414,
        113,
        398,
        285,
        326,
        188,
        444,
        13,
        26,
        474,
        437,
        440,
        252,
        465,
        204,
        98,
        239,
        477,
        137,
        447,
        391,
        245,
        410,
        443,
        390,
        468,
        122,
        370,
        406,
        334,
        319,
        200,
        420,
        305,
        25,
        425,
        301,
        456,
        383,
        422,
        471,
        160,
        346,
        363,
        439,
        165,
        345,
        325,
        429,
        287,
        75,
        161,
        199,
        158,
        231,
        273,
        184,
        333,
        480,
        311,
        266,
        159,
        481,
        95,
        462,
        251,
        177,
        347,
        308,
        202,
        187,
        31,
        22,
        217,
        72,
        8,
        65,
        417,
        197,
        405,
        283,
        68,
        12,
        142,
        112,
        108,
        292,
        104,
        442,
        341,
        353,
        478,
        169,
        176,
        168,
        256,
        290,
        332,
        386,
        240,
        180,
        421,
        190,
        288,
        322,
        16,
        310,
        78,
        323,
        154,
        412,
        464,
        236,
        268,
        467,
        327,
        257,
        490,
        264,
        271,
        278,
        23,
        179,
        270,
        148,
        183,
        400,
        275,
        318,
        117,
        128,
        378,
        155,
        146,
        156,
        450,
        121,
        365,
        99,
        303,
        193,
        313,
        34,
        431,
        198,
        321,
        82,
        88,
        445,
        145,
        427,
        488,
        102,
        138,
        60,
        403,
        107,
        281,
        387,
        352,
        41,
        294,
        151,
        100,
        432,
        441,
        2,
        279,
        228,
        120,
        1,
        37,
        404,
        320,
        267,
        210,
        340,
        189,
        337,
        424,
        5,
        225,
        124,
        359,
        32,
        393,
        364,
        358,
        114,
        150,
        133,
        81,
        396,
        3,
        309,
        218,
        247,
        229,
        185,
        147,
        49,
        79,
        227,
        33,
        61,
        144,
        134,
        357,
        377,
        70,
        186,
        77,
        212,
        293,
        226,
        282,
        498,
        249,
        494,
        360,
        17,
        66,
        216,
        336,
        14,
        43,
        76,
        223,
        220,
        356,
        298,
        170,
        201,
        376,
        302,
        411,
        89,
        52,
        475,
        371,
        413,
        408,
        135,
        493,
        349,
        208,
        379,
        243,
        69,
        59,
        213,
        40,
        125,
        436,
        143,
        192,
        19,
        369,
        111,
        211,
        265,
        463,
        162,
        97,
        472,
        487,
        373,
        259,
        495,
        207,
        254,
        461,
        11,
        385,
        36,
        428,
        57,
        205,
        483,
        126,
        30,
        116,
        434,
        58,
        409,
        167,
        262,
        7,
        237,
        479,
        366,
        361,
        274,
        96,
        389,
        132,
        375,
        339,
        163,
        42,
        28,
        0,
        248,
        338,
        224,
        394,
        455,
        174,
        454,
        55,
        368,
        20,
        395,
        48,
        492,
        486,
        291,
        343,
        289,
        306,
        460,
        110,
        297,
        466,
        330,
        277,
        209,
        214,
        397,
        46,
        253,
        430,
        84,
        234,
        101,
        232,
        53,
        246,
        109,
        136,
        276,
        119,
        496,
        235,
        300,
        489,
        85,
        367,
        380,
        91,
        328,
        241,
        221,
        39,
        92,
        476,
        222,
        435,
        331,
        80,
        195,
        51,
        105,
        344,
        196,
        448,
        402,
        348,
        194,
        317,
        21,
        35,
        230,
        284,
        67,
        9,
        446,
        258,
        324,
        351,
        342,
        382,
        459,
        71,
        164,
        491,
        93,
        372,
        473,
        191,
        131,
        255,
        56,
        181,
        238,
        261,
        484,
        452,
        458,
        451,
        263,
        153,
        280,
        433,
        449,
        152,
        362,
        54,
        50,
        423,
        123,
        233,
        482,
        407,
        83,
        44,
        350,
        269,
        106,
        497,
        401,
        18,
        299,
        6,
        296,
        418,
        24,
        399,
        354,
        27,
        384,
        129,
        381,
        416,
        15,
        219,
        74,
        45,
        215,
        244,
        206,
        10,
        242,
        115,
        175,
        73,
        312,
        316,
        94,
        499
    ],
    "Global Optimum": 0,
    "Algorithm": "Genetic algorithm",
    "Parameters": {
        "population": 30,
        "offspring": 30,
        "mutation probability": 0.002,
        "crossover probability": 0.9
    },
    "Fitness": 552856,
    "Solution": [
        139,
        286,
        182,
        355,
        141,
        272,
        388,
        485,
        86,
        149,
        314,
        419,
        103,
        118,
        90,
        4,
        426,
        166,
        62,
        63,
        173,
        87,
        335,
        470,
        260,
        307,
        438,
        315,
        329,
        127,
        457,
        47,
        38,
        157,
        29,
        469,
        415,
        453,
        304,
        203,
        172,
        140,
        250,
        392,
        130,
        374,
        171,
        295,
        178,
        64,
        414,
        113,
        398,
        285,
        326,
        188,
        444,
        13,
        26,
        474,
        437,
        440,
        252,
        465,
        204,
        98,
        239,
        477,
        137,
        447,
        391,
        245,
        410,
        443,
        390,
        468,
        122,
        370,
        406,
        334,
        319,
        200,
        420,
        305,
        25,
        425,
        301,
        456,
        383,
        422,
        471,
        160,
        346,
        363,
        439,
        165,
        345,
        325,
        429,
        287,
        75,
        161,
        199,
        158,
        231,
        273,
        184,
        333,
        480,
        311,
        266,
        159,
        481,
        95,
        462,
        251,
        177,
        347,
        308,
        202,
        187,
        31,
        22,
        217,
        72,
        8,
        65,
        417,
        197,
        405,
        283,
        68,
        12,
        142,
        112,
        108,
        292,
        104,
        442,
        341,
        353,
        478,
        169,
        176,
        168,
        256,
        290,
        332,
        386,
        240,
        180,
        421,
        190,
        288,
        322,
        16,
        310,
        78,
        323,
        154,
        412,
        464,
        236,
        268,
        467,
        327,
        257,
        490,
        264,
        271,
        278,
        23,
        179,
        270,
        148,
        183,
        400,
        275,
        318,
        117,
        128,
        378,
        155,
        146,
        156,
        450,
        121,
        365,
        99,
        303,
        193,
        313,
        34,
        431,
        198,
        321,
        82,
        88,
        445,
        145,
        427,
        488,
        102,
        138,
        60,
        403,
        107,
        281,
        387,
        352,
        41,
        294,
        151,
        100,
        432,
        441,
        2,
        279,
        228,
        120,
        1,
        37,
        404,
        320,
        267,
        210,
        340,
        189,
        337,
        424,
        5,
        225,
        124,
        359,
        32,
        393,
        364,
        358,
        114,
        150,
        133,
        81,
        396,
        3,
        309,
        218,
        247,
        229,
        185,
        147,
        49,
        79,
        227,
        33,
        61,
        144,
        134,
        357,
        377,
        70,
        186,
        77,
        212,
        293,
        226,
        282,
        498,
        249,
        494,
        360,
        17,
        66,
        216,
        336,
        14,
        43,
        76,
        223,
        220,
        356,
        298,
        170,
        201,
        376,
        302,
        411,
        89,
        52,
        475,
        371,
        413,
        408,
        135,
        493,
        349,
        208,
        379,
        243,
        69,
        59,
        213,
        40,
        125,
        436,
        143,
        192,
        19,
        369,
        111,
        211,
        265,
        463,
        162,
        97,
        472,
        487,
        373,
        259,
        495,
        207,
        254,
        461,
        11,
        385,
        36,
        428,
        57,
        205,
        483,
        126,
        30,
        116,
        434,
        58,
        409,
        167,
        262,
        7,
        237,
        479,
        366,
        361,
        274,
        96,
        389,
        132,
        375,
        339,
        163,
        42,
        28,
        0,
        248,
        338,
        224,
        394,
        455,
        174,
        454,
        55,
        368,
        20,
        395,
        48,
        492,
        486,
        291,
        343,
        289,
        306,
        460,
        110,
        297,
        466,
        330,
        277,
        209,
        214,
        397,
        46,
        253,
        430,
        84,
        234,
        101,
        232,
        53,
        246,
        109,
        136,
        276,
        119,
        496,
        235,
        300,
        489,
        85,
        367,
        380,
        91,
        328,
        241,
        221,
        39,
        92,
        476,
        222,
        435,
        331,
        80,
        195,
        51,
        105,
        344,
        196,
        448,
        402,
        348,
        194,
        317,
        21,
        35,
        230,
        284,
        67,
        9,
        446,
        258,
        324,
        351,
        342,
        382,
        459,
        71,
        164,
        491,
        93,
        372,
        473,
        191,
        131,
        255,
        56,
        181,
        238,
        261,
        484,
        452,
        458,
        451,
        263,
        153,
        280,
        433,
        449,
        152,
        362,
        54,
        50,
        423,
        123,
        233,
        482,
        407,
        83,
        44,
        350,
        269,
        106,
        497,
        401,
        18,
        299,
        6,
        296,
        418,
        24,
        399,
        354,
        27,
        384,
        129,
        381,
        416,
        15,
        219,
        74,
        45,
        215,
        244,
        206,
        10,
        242,
        115,
        175,
        73,
        312,
        316,
        94,
        499
    ],
    "Nb of functions evaluations": 400020,
    "Computational time in seconds": 1815.2340667247772,
    "Stopping criterion in evaluations": 400000
}